%nprocshared=16
%mem=8GB
%chk=EC_B3LYP_6-31ppgd_p_pcm_Water.chk
# opt freq B3LYP/6-31++g(d,p) em=gd3bj scrf=(pcm,solvent=Water)

EC_B3LYP_6-31ppgd,p_pcm_Water

0 1
 C    -0.61657512   -0.75184732   -0.06213689
 C    -0.63413104    0.73919565    0.02773452
 O     0.67828378    1.04370452    0.46046960
 C     1.47407730    0.01491081    0.04054516
 O     2.69231584    0.02723271    0.07405740
 O     0.72352593   -1.02952108   -0.42191920
 H    -1.31209042   -1.13498416   -0.81364714
 H    -0.82692779   -1.23198004    0.89954240
 H    -1.37750036    1.10777513    0.73967276
 H    -0.80097814    1.21551379   -0.94431862

