%nprocshared=16
%mem=8GB
%chk=EMC_B3LYP_6-31ppgd_p_pcm_Water.chk
# opt freq B3LYP/6-31++g(d,p) em=gd3bj scrf=(pcm,solvent=Water)

EMC_B3LYP_6-31ppgd,p_pcm_Water

0 1
 C    -2.26394183   -0.02303297    0.87512030
 C    -1.70894500    0.17973947   -0.52241144
 O    -0.39114502    0.73829566   -0.45622091
 C     0.62098660   -0.15607987   -0.33429235
 O     0.50461289   -1.37042671   -0.27034355
 O     1.78922339    0.53229826   -0.29251037
 C     2.94207034   -0.29631253   -0.16166265
 H    -2.24979289    0.91803942    1.43469159
 H    -3.29198665   -0.39385867    0.83405474
 H    -1.65685410   -0.73811890    1.43920892
 H    -1.71948822   -0.75369226   -1.09704069
 H    -2.33386125    0.89675034   -1.06498420
 H     2.90409021   -0.86336604    0.77386293
 H     3.03125737   -0.96975402   -1.01998236
 H     3.82377417    0.35014969   -0.13748993

