%nprocshared=16
%mem=8GB
%chk=Acetone.chk
# opt freq B3LYP/6-31G(d) em=gd3bj

Acetone

0 1
 C     1.22379796   -0.41450541    0.00989845
 C     0.12103789    0.60853177   -0.03053879
 O     0.36070816    1.81350306   -0.09100953
 C    -1.28929906    0.08518860    0.00662794
 H     2.19447129    0.08801639   -0.02258116
 H     1.14007044   -1.07765572   -0.85458979
 H     1.15500738   -0.99078631    0.93579658
 H    -1.46346057   -0.55998468   -0.85797461
 H    -1.44851732   -0.47310605    0.93241175
 H    -1.99381617    0.92079835   -0.02804085

