%nprocshared=16
%mem=8GB
%chk=EC_B3LYP_6-31ppgd_p_pcm_Acetone.chk
# opt freq B3LYP/6-31++g(d,p) em=gd3bj scrf=(pcm,solvent=Acetone)

EC_B3LYP_6-31ppgd,p_pcm_Acetone

0 1
 C    -0.63800904   -0.73628434   -0.01143039
 C    -0.61304829    0.75708652    0.01711107
 O     0.71724127    1.05672474   -0.36099449
 C     1.47449117   -0.02451711   -0.00669533
 O     2.69307165   -0.04477893   -0.01222821
 O     0.68496171   -1.08004019    0.35462684
 H    -0.83785747   -1.13284730   -1.01263076
 H    -1.36167373   -1.15721640    0.69172639
 H    -0.79050409    1.15992257    1.02002481
 H    -1.32867319    1.20195044   -0.67950994

