%nprocshared=16
%mem=8GB
%chk=erjia.chk
# opt freq B3LYP/6-31G(d) em=gd3bj

erjia

0 1
 C    -1.32411599   -0.07880449   -0.29508931
 S    -0.08983164   -0.27889136    1.01236228
 O     0.18675156   -1.74668278    1.15077683
 C     1.28053803    0.44747101    0.08101508
 H    -2.27010138   -0.50130629    0.05169678
 H    -1.45981469    0.98393008   -0.50880054
 H    -1.00128155   -0.60472823   -1.19674948
 H     1.44066080   -0.11132897   -0.84413987
 H     2.18309835    0.39846999    0.69472579
 H     1.05409650    1.49187102   -0.14579755

