%nprocshared=16
%mem=8GB
%chk=DMC_B3LYP_6-31ppgd_p_pcm_Acetone.chk
# opt freq B3LYP/6-31++g(d,p) em=gd3bj scrf=(pcm,solvent=Acetone)

DMC_B3LYP_6-31ppgd,p_pcm_Acetone

0 1
 C    -2.30141866   -0.01493781    0.40374493
 O    -0.99197059    0.13203259    0.94829809
 C     0.00028924    0.00043085    0.03290773
 O    -0.14952877   -0.22303588   -1.15892377
 O     1.18759181    0.15975382    0.66912080
 C     2.32080460    0.04385431   -0.18831049
 H    -2.49419067    0.75676890   -0.34825521
 H    -3.02278109    0.10767636    1.21645996
 H    -2.43016716   -1.01415889   -0.02424809
 H     2.29847720    0.81773258   -0.96213958
 H     3.22039080    0.18708007    0.41677946
 H     2.36250329   -0.95319692   -0.63814098

