%nprocshared=16
%mem=8GB
%chk=Acetone.chk
# opt freq B3LYP/6-31G(d) em=gd3bj

Acetone

0 1
 C    -1.26501714    0.24915615    0.08512329
 C     0.07298916    0.15546104   -0.59699140
 O     0.21751775    0.46329755   -1.77910913
 C     1.22551773   -0.33328824    0.23794761
 H    -2.01484256    0.61421394   -0.62218559
 H    -1.20065908    0.94711124    0.92347578
 H    -1.56549773   -0.73988792    0.43955454
 H     1.01465757   -1.34329049    0.59788081
 H     2.13584365   -0.35648575   -0.36749288
 H     1.37949064    0.34371247    1.08179696

