%nprocshared=16
%mem=8GB
%chk=EC_B3LYP_6-31ppgd_p_pcm_Water.chk
# opt freq B3LYP/6-31++g(d,p) em=gd3bj scrf=(pcm,solvent=Water)

EC_B3LYP_6-31ppgd,p_pcm_Water

0 1
 C    -0.61210225   -0.75538799   -0.06340388
 C    -0.63880225    0.73134818    0.07976544
 O     0.67642656    1.10603159   -0.28383052
 C     1.47431183    0.02833336   -0.01928348
 O     2.69274407    0.05174936   -0.03522019
 O     0.72560549   -1.07908761    0.26549213
 H    -0.80801421   -1.08089206   -1.09066691
 H    -1.31364572   -1.25434588    0.61052593
 H    -0.82014852    1.04960187    1.11196277
 H    -1.37637500    1.20264917   -0.57534129

