%nprocshared=16
%mem=8GB
%chk=DMC_B3LYP_6-31ppgd_p_pcm_Acetone.chk
# opt freq B3LYP/6-31++g(d,p) em=gd3bj scrf=(pcm,solvent=Acetone)

DMC_B3LYP_6-31ppgd,p_pcm_Acetone

0 1
 C     2.31038344   -0.09680574   -0.38081396
 O     1.21128217   -0.06735306    0.52687593
 C     0.00037781   -0.00006729   -0.08059443
 O    -0.19540197    0.03481196   -1.28612301
 O    -0.95564754    0.02181053    0.88136998
 C    -2.28504996    0.09229253    0.37096436
 H     2.25619298   -0.98232915   -1.02199105
 H     3.23260980   -0.15070804    0.20441749
 H     2.33661093    0.81691499   -0.98299674
 H    -2.42827984    1.01298475   -0.20349866
 H    -2.97437567    0.10470875    1.21983351
 H    -2.50870215   -0.78626023   -0.24248690

