%nprocshared=16
%mem=8GB
%chk=EC_B3LYP_6-31ppgd_p_pcm_Water.chk
# opt freq B3LYP/6-31++g(d,p) em=gd3bj scrf=(pcm,solvent=Water)

EC_B3LYP_6-31ppgd,p_pcm_Water

0 1
 C    -0.53390031    0.81457112   -0.02692975
 C    -0.70871599   -0.66844551    0.01424449
 O     0.56956558   -1.12486271    0.41436533
 C     1.46454295   -0.17222303    0.01495080
 O     2.67490181   -0.31455544    0.02730648
 O     0.82317736    0.96108308   -0.40014760
 H    -0.67906554    1.28086527    0.95342755
 H    -1.19475617    1.29481700   -0.75352257
 H    -0.93831190   -1.09066981   -0.96993845
 H    -1.47743779   -0.98057997    0.72624374

