%nprocshared=16
%mem=8GB
%chk=tansuan.chk
# opt freq B3LYP/6-31G(d) em=gd3bj

tansuan

0 1
 C     2.91822780   -0.49468686   -1.08038690
 C     2.46680079    0.54205417   -0.06864939
 O     1.08501510    0.86271763   -0.27044554
 C     0.19629252    0.05861833    0.36408863
 O     0.46943561   -0.89891305    1.07168274
 O    -1.05317002    0.50029010    0.07450173
 C    -2.09772574   -0.26535099    0.68153634
 C    -3.42741887    0.33801475    0.27248291
 H     2.36579239   -1.43146429   -0.95643515
 H     2.72760199   -0.14499387   -2.10034517
 H     3.98650746   -0.70247968   -0.97234435
 H     3.03466810    1.46711995   -0.21282899
 H     2.65414028    0.20778127    0.95837091
 H    -2.04318724   -1.30472965    0.33853500
 H    -1.99697971   -0.23103102    1.77222016
 H    -3.49036795    1.38391358    0.59067099
 H    -4.25994197   -0.21642926    0.71451598
 H    -3.53569054    0.32956888   -0.81715867

