%nprocshared=16
%mem=8GB
%chk=EC_B3LYP_6-31ppgd_p_pcm_Acetone.chk
# opt freq B3LYP/6-31++g(d,p) em=gd3bj scrf=(pcm,solvent=Acetone)

EC_B3LYP_6-31ppgd,p_pcm_Acetone

0 1
 C    -0.60075722    0.76498814    0.05643353
 C    -0.64833624   -0.71845204   -0.11308213
 O     0.64759571   -1.12244583    0.28662585
 C     1.47217664   -0.05484727    0.06676581
 O     2.68884442   -0.10017540    0.12194377
 O     0.75240643    1.07028759   -0.22313311
 H    -0.82466756    1.07679388    1.08222348
 H    -1.27109204    1.28747351   -0.63129029
 H    -1.41503115   -1.18739949    0.50946978
 H    -0.80113899   -1.01622309   -1.15595668

