%nprocshared=16
%mem=8GB
%chk=EMC_B3LYP_6-31ppgd_p_pcm_Acetone.chk
# opt freq B3LYP/6-31++g(d,p) em=gd3bj scrf=(pcm,solvent=Acetone)

EMC_B3LYP_6-31ppgd,p_pcm_Acetone

0 1
 C     2.81172706    0.03319056   -0.08790271
 C     1.47063787    0.04753911    0.61973840
 O     0.44097649   -0.01322465   -0.37118695
 C    -0.81650161   -0.00703817    0.13701886
 O    -1.11007477    0.04428821    1.32188972
 O    -1.69170659   -0.06767440   -0.89740707
 C    -3.05959237   -0.06800161   -0.49539781
 H     2.89503680    0.88306209   -0.77338731
 H     3.63340789    0.07837784    0.63230269
 H     2.91961738   -0.87429962   -0.69117103
 H     1.39583596   -0.81926624    1.28605713
 H     1.37080329    0.97033278    1.20232957
 H    -3.30364492    0.85540309    0.03935394
 H    -3.27847636   -0.94391324    0.12352532
 H    -3.67804611   -0.11877574   -1.39586355

