%nprocshared=16
%mem=8GB
%chk=THF.chk
# opt freq B3LYP/6-31G(d) em=gd3bj

THF

0 1
 C     0.69491234   -0.73001756    0.32894910
 C    -0.74839279   -0.74358712   -0.10499228
 C    -1.13056345    0.71355427    0.03850690
 O     0.05369024    1.47940134   -0.22483982
 C     1.17780002    0.58801150   -0.23631779
 H     0.75265345   -0.71115153    1.42371641
 H     1.27148698   -1.58622689   -0.03044367
 H    -0.81643775   -1.04636186   -1.15661134
 H    -1.38028073   -1.41149482    0.48603466
 H    -1.45398373    0.93979287    1.06015706
 H    -1.92391208    1.01070282   -0.65300033
 H     1.50541985    0.47741210   -1.27554198
 H     1.99760765    1.01996486    0.34438309

