%nprocshared=16
%mem=8GB
%chk=Acetone.chk
# opt freq B3LYP/6-31G(d) em=gd3bj scrf=(pcm,solvent=Acetone)

Acetone

0 1
 C     1.23362568    0.35186028   -0.15477284
 C     0.09217137   -0.42462999    0.44394608
 O     0.27468226   -1.26544853    1.32301833
 C    -1.28350569   -0.12206641   -0.08547582
 H     1.28831416    0.15371291   -1.22802315
 H     1.08450557    1.41938169    0.02489219
 H     2.17390635    0.04294830    0.31023821
 H    -1.31939198   -0.33726622   -1.15623285
 H    -1.52320211    0.92840109    0.09668377
 H    -2.02110559   -0.74689312    0.42572607

