%nprocshared=16
%mem=8GB
%chk=DMC_B3LYP_6-31ppgd_p_pcm_Water.chk
# opt freq B3LYP/6-31++g(d,p) em=gd3bj scrf=(pcm,solvent=Water)

DMC_B3LYP_6-31ppgd,p_pcm_Water

0 1
 C    -2.33145894   -0.01399027    0.13348768
 O    -1.11972504   -0.68519488    0.47109286
 C    -0.00006313   -0.00210078    0.12529211
 O     0.03263424    1.08827700   -0.42502842
 O     1.07703130   -0.73853224    0.49593270
 C     2.32722793   -0.12710269    0.18616766
 H    -3.16777468   -0.64271074    0.45159098
 H    -2.40010775    0.94368967    0.65916230
 H    -2.40162983    0.13201609   -0.94908136
 H     2.42884382    0.01474652   -0.89445714
 H     2.43037454    0.82639853    0.71379761
 H     3.12464753   -0.79549621    0.52273224

