%nprocshared=16
%mem=8GB
%chk=EC_B3LYP_6-31ppgd_p_pcm_Water.chk
# opt freq B3LYP/6-31++g(d,p) em=gd3bj scrf=(pcm,solvent=Water)

EC_B3LYP_6-31ppgd,p_pcm_Water

0 1
 C    -0.59062172    0.77414628   -0.03412006
 C    -0.65860228   -0.71434514    0.07249100
 O     0.63892535   -1.11759298   -0.32276956
 C     1.47233070   -0.07048110   -0.04522373
 O     2.68912575   -0.12872946   -0.08259938
 O     0.76122344    1.05056666    0.27976458
 H    -1.26607409    1.27595430    0.66391760
 H    -0.79370626    1.13110993   -1.04947086
 H    -1.42032991   -1.14735478   -0.58140353
 H    -0.83227098   -1.05327372    1.09941394

