%nprocshared=16
%mem=8GB
%chk=DMC_B3LYP_6-31ppgd_p_pcm_Water.chk
# opt freq B3LYP/6-31++g(d,p) em=gd3bj scrf=(pcm,solvent=Water)

DMC_B3LYP_6-31ppgd,p_pcm_Water

0 1
 C    -2.30317218    0.09388399    0.50882931
 O    -1.22465704    0.07023954   -0.42339283
 C    -0.00042959    0.00007928    0.15641966
 O     0.22230512   -0.04164903    1.35704157
 O     0.93382704   -0.01575576   -0.82681579
 C     2.27435164   -0.08848430   -0.34671534
 H    -3.23829148    0.15067704   -0.05528978
 H    -2.31555178   -0.82330588    1.10616147
 H    -2.23498990    0.97572559    1.15373559
 H     2.94450386   -0.09564502   -1.21086027
 H     2.43076936   -1.01239775    0.21906996
 H     2.51133495    0.78663230    0.26664314

