%nprocshared=16
%mem=8GB
%chk=EMC_B3LYP_6-31ppgd_p_pcm_Acetone.chk
# opt freq B3LYP/6-31++g(d,p) em=gd3bj scrf=(pcm,solvent=Acetone)

EMC_B3LYP_6-31ppgd,p_pcm_Acetone

0 1
 C    -2.32589052    0.69828342    0.00765287
 C    -1.65079611   -0.50725551   -0.61936881
 O    -0.32950346   -0.16465659   -1.05499986
 C     0.64595765   -0.27899180   -0.11980596
 O     0.49402701   -0.63477333    1.03890325
 O     1.82358249    0.07371255   -0.69355382
 C     2.94013120   -0.00024598    0.18997444
 H    -3.35590780    0.46273645    0.28988711
 H    -2.33493693    1.54081288   -0.69163274
 H    -1.78644689    1.03090786    0.90009904
 H    -2.20975401   -0.82028031   -1.50739549
 H    -1.63670189   -1.36110953    0.06790055
 H     3.08390559   -1.02627033    0.54323591
 H     2.80959338    0.68548853    1.03313994
 H     3.83274029    0.30164171   -0.36501400

