%nprocshared=16
%mem=8GB
%chk=DMC_B3LYP_6-31ppgd_p_pcm_Water.chk
# opt freq B3LYP/6-31++g(d,p) em=gd3bj scrf=(pcm,solvent=Water)

DMC_B3LYP_6-31ppgd,p_pcm_Water

0 1
 C    -2.32000605    0.12048817   -0.39277587
 O    -1.11403531   -0.55970894   -0.73300847
 C    -0.00006226   -0.00191109   -0.19657258
 O     0.03217004    0.98872022    0.51788952
 O     1.07194860   -0.73378160   -0.59027030
 C     2.31583528   -0.24867325   -0.09006201
 H    -3.15204013   -0.40401301   -0.87081449
 H    -2.47838575    0.10438014    0.69020701
 H    -2.30007077    1.14915325   -0.76647120
 H     2.50672331    0.76637740   -0.45259521
 H     2.32839887   -0.27839442    1.00408416
 H     3.10952418   -0.90263686   -0.46193960

