%nprocshared=16
%mem=8GB
%chk=EC_B3LYP_6-31ppgd_p_pcm_Acetone.chk
# opt freq B3LYP/6-31++g(d,p) em=gd3bj scrf=(pcm,solvent=Acetone)

EC_B3LYP_6-31ppgd,p_pcm_Acetone

0 1
 C    -0.65773971   -0.70633473    0.13330565
 C    -0.58528628    0.77887303   -0.00988102
 O     0.70889535    0.98047868   -0.54547990
 C     1.46502567   -0.08549323   -0.14546768
 O     2.67578347   -0.15614855   -0.26568855
 O     0.68430648   -1.06178046    0.40714418
 H    -0.96852976   -1.20179196   -0.79272639
 H    -1.31973605   -1.01760214    0.94581859
 H    -1.35333927    1.17359247   -0.68039937
 H    -0.64937989    1.29620689    0.95337451

