%nprocshared=16
%mem=8GB
%chk=乙醇.chk
# opt freq B3LYP/6-31G(d) em=gd3bj

乙醇

0 1
 C    -0.88708925    0.17506438   -0.01253485
 C     0.46048928   -0.51551593   -0.04653520
 O     1.44296505    0.30726687    0.56557163
 H    -0.84747754    1.12776788   -0.55081743
 H    -1.65878176   -0.45332673   -0.46584205
 H    -1.17694434    0.40367645    1.01830565
 H     0.76871242   -0.72432780   -1.07545956
 H     0.41948635   -1.46207277    0.50017690
 H     1.47863979    1.14146766    0.06713491

