%nprocshared=16
%mem=8GB
%chk=FSI_B3LYP_6-31ppgd_p_pcm_Water.chk
# opt freq HF/STO-3G

FSI_B3LYP_6-31ppgd,p_pcm_Water

0 1
! SMILES: [FSI-]
! 请手动添加分子坐标

